n_res = 4;
rcap = [19, 19, 46, 41];
rtype = [1, 1, 2, 2];
n_tasks = 16;
modes = [ {1, 2, 3, 4}, {5, 6, 7, 8}, {9, 10, 11, 12}, {13, 14, 15, 16}, {17, 18, 19, 20}, {21, 22, 23, 24}, {25, 26, 27, 28}, {29, 30, 31, 32}, {33, 34, 35, 36}, {37, 38, 39, 40}, {41, 42, 43, 44}, {45, 46, 47, 48}, {49, 50, 51, 52}, {53, 54, 55, 56}, {57, 58, 59, 60}, {61, 62, 63, 64} ];
succ = [ {6, 9, 15}, {4, 5}, {4, 9, 13}, {6, 7, 15}, {8, 12}, {8, 10, 11}, {8}, {14, 16}, {10, 11}, {16}, {14}, {13}, {14, 15, 16}, {}, {}, {} ];
n_opt = 64;
dur = [2, 2, 10, 10, 3, 3, 6, 8, 6, 7, 8, 10, 4, 5, 8, 10, 1, 8, 10, 10, 1, 3, 9, 9, 5, 6, 8, 10, 1, 1, 2, 3, 2, 3, 5, 6, 1, 7, 7, 8, 5, 6, 7, 10, 4, 6, 8, 8, 1, 3, 7, 8, 2, 4, 8, 8, 1, 3, 6, 8, 4, 5, 8, 10];
rreq = [|  7,  0,  0,  7,  6,  6,  0,  0,  0,  4,  4,  0,  0,  0,  1,  0,  7,  2,  0,  0,  0, 10,  0,  0,  6,  5,  4,  0,  0,  0,  0,  0,  6,  6,  0,  6,  0,  0,  5,  4,  0,  6,  0,  0,  0,  3,  3,  0,  5,  4,  0,  3,  0,  0,  7,  0,  9,  8,  0,  0,  6,  0,  4,  0
        |  0,  9,  7,  0,  0,  0,  9,  9,  5,  0,  0,  1,  6,  5,  0,  1,  0,  0,  1,  1,  8,  0,  7,  7,  0,  0,  0, 10,  8,  8,  7,  7,  0,  0,  4,  0,  6,  3,  0,  0,  5,  0,  4,  3,  7,  0,  0,  4,  0,  0,  3,  0,  9,  8,  0,  5,  0,  0,  4,  4,  0,  7,  0,  5
        |  4,  4,  0,  0,  0,  9,  0,  0,  0,  0,  5,  4,  0,  0,  0,  3,  0,  0,  0,  4,  6,  0,  0,  6,  0,  5,  4,  0,  7,  0,  6,  0,  0,  0,  0,  4,  0,  5,  5,  4,  6,  0,  0,  5,  4,  0,  0,  0,  5,  5,  5,  5,  9,  0,  0,  5,  4,  3,  3,  2,  0,  5,  0,  0
        |  0,  0,  1,  1,  9,  0,  9,  7,  5,  3,  0,  0,  8,  5,  5,  0,  5,  4,  3,  0,  0,  6,  4,  0,  9,  0,  0,  5,  0, 10,  0,  6,  8,  6,  5,  0,  2,  0,  0,  0,  0,  3,  3,  0,  0,  5,  2,  3,  0,  0,  0,  0,  0,  4,  3,  0,  0,  0,  0,  0,  7,  0,  7,  7 |];
